p cnf 106 246
-12 1 0
-12 -2 0
-13 -1 0
-13 2 0
14 12 13 0
-15 3 0
-15 -4 0
-16 -3 0
-16 4 0
17 15 16 0
18 -14 -17 0
-19 5 0
-19 -6 0
-20 -5 0
-20 6 0
21 19 20 0
22 -18 -21 0
23 -7 8 0
24 7 -8 0
-25 -23 0
-25 -24 0
-26 7 0
-26 9 0
26 -7 -9 0
-27 5 0
-27 26 0
27 -5 -26 0
-28 5 0
-28 9 0
28 -5 -9 0
-29 3 0
-29 28 0
29 -3 -28 0
-30 -3 0
-30 -28 0
30 3 28 0
-31 -29 0
-31 -30 0
31 29 30 0
-32 27 0
-32 31 0
32 -27 -31 0
-33 -27 0
-33 -31 0
33 27 31 0
-34 -32 0
-34 -33 0
34 32 33 0
-35 7 0
-35 10 0
35 -7 -10 0
-36 34 0
-36 35 0
36 -34 -35 0
-37 -29 0
-37 -32 0
37 29 32 0
-38 3 0
-38 9 0
38 -3 -9 0
-39 1 0
-39 38 0
39 -1 -38 0
-40 -1 0
-40 -38 0
40 1 38 0
-41 -39 0
-41 -40 0
41 39 40 0
-42 -37 0
-42 41 0
42 37 -41 0
-43 37 0
-43 -41 0
43 -37 41 0
-44 -42 0
-44 -43 0
44 42 43 0
-45 5 0
-45 10 0
45 -5 -10 0
-46 44 0
-46 45 0
46 -44 -45 0
-47 -44 0
-47 -45 0
47 44 45 0
-48 -46 0
-48 -47 0
48 46 47 0
-49 36 0
-49 48 0
49 -36 -48 0
-50 -36 0
-50 -48 0
50 36 48 0
-51 -49 0
-51 -50 0
51 49 50 0
-52 7 0
-52 11 0
52 -7 -11 0
-53 51 0
-53 52 0
53 -51 -52 0
-54 -51 0
-54 -52 0
54 51 52 0
-55 -53 0
-55 -54 0
55 53 54 0
-56 8 0
-56 9 0
56 -8 -9 0
-57 6 0
-57 56 0
57 -6 -56 0
-58 6 0
-58 9 0
58 -6 -9 0
-59 4 0
-59 58 0
59 -4 -58 0
-60 -4 0
-60 -58 0
60 4 58 0
-61 -59 0
-61 -60 0
61 59 60 0
-62 57 0
-62 61 0
62 -57 -61 0
-63 -57 0
-63 -61 0
63 57 61 0
-64 -62 0
-64 -63 0
64 62 63 0
-65 8 0
-65 10 0
65 -8 -10 0
-66 64 0
-66 65 0
66 -64 -65 0
-67 -59 0
-67 -62 0
67 59 62 0
-68 4 0
-68 9 0
68 -4 -9 0
-69 2 0
-69 68 0
69 -2 -68 0
-70 -2 0
-70 -68 0
70 2 68 0
-71 -69 0
-71 -70 0
71 69 70 0
-72 -67 0
-72 71 0
72 67 -71 0
-73 67 0
-73 -71 0
73 -67 71 0
-74 -72 0
-74 -73 0
74 72 73 0
-75 6 0
-75 10 0
75 -6 -10 0
-76 74 0
-76 75 0
76 -74 -75 0
-77 -74 0
-77 -75 0
77 74 75 0
-78 -76 0
-78 -77 0
78 76 77 0
-79 66 0
-79 78 0
79 -66 -78 0
-80 -66 0
-80 -78 0
80 66 78 0
-81 -79 0
-81 -80 0
81 79 80 0
-82 8 0
-82 11 0
82 -8 -11 0
-83 81 0
-83 82 0
83 -81 -82 0
-84 -81 0
-84 -82 0
84 81 82 0
-85 -83 0
-85 -84 0
85 83 84 0
86 -55 85 0
87 55 -85 0
-88 -86 0
-88 -87 0
-89 -34 0
-89 -35 0
89 34 35 0
-90 -36 0
-90 -89 0
90 36 89 0
-91 -64 0
-91 -65 0
91 64 65 0
-92 -66 0
-92 -91 0
92 66 91 0
93 -90 92 0
94 90 -92 0
-95 -93 0
-95 -94 0
-96 88 0
-96 95 0
-97 -5 0
-97 -26 0
97 5 26 0
-98 -27 0
-98 -97 0
98 27 97 0
-99 -6 0
-99 -56 0
99 6 56 0
-100 -57 0
-100 -99 0
100 57 99 0
101 -98 100 0
102 98 -100 0
-103 -101 0
-103 -102 0
-104 96 0
-104 103 0
-105 25 0
-105 104 0
-106 -22 0
-106 105 0
106 0
